p edge 30 212 20
v 3 2 5 28
v 1 29
v 1 12
v 1 16
v 2 11 25
v 2 17 21
v 2 8 18
v 1 30
v 1 27
v 1 10
v 3 4 13 15
v 2 7 23
v 2 6 20
v 2 3 22
v 1 1
v 1 24
v 1 26
v 1 19
v 1 14
v 1 9
e 1 2
e 1 3
e 1 4
e 1 6
e 1 8
e 1 10
e 1 12
e 1 15
e 1 16
e 1 17
e 1 18
e 1 20
e 1 22
e 1 24
e 1 25
e 1 29
e 2 3
e 2 7
e 2 8
e 2 9
e 2 10
e 2 11
e 2 15
e 2 16
e 2 17
e 2 19
e 2 20
e 2 21
e 2 22
e 2 23
e 2 27
e 2 29
e 2 30
e 3 6
e 3 10
e 3 11
e 3 12
e 3 14
e 3 17
e 3 19
e 3 22
e 3 25
e 3 27
e 4 10
e 4 12
e 4 13
e 4 14
e 4 15
e 4 17
e 4 19
e 4 21
e 4 23
e 4 25
e 4 26
e 4 27
e 4 28
e 4 29
e 5 7
e 5 9
e 5 10
e 5 11
e 5 12
e 5 14
e 5 16
e 5 17
e 5 19
e 5 20
e 5 24
e 5 28
e 5 29
e 5 30
e 6 9
e 6 10
e 6 11
e 6 13
e 6 14
e 6 16
e 6 23
e 6 24
e 6 26
e 6 27
e 6 28
e 6 29
e 7 8
e 7 9
e 7 10
e 7 11
e 7 13
e 7 15
e 7 16
e 7 19
e 7 20
e 7 23
e 7 24
e 7 25
e 7 26
e 8 12
e 8 14
e 8 16
e 8 18
e 8 22
e 8 23
e 8 29
e 8 30
e 9 13
e 9 14
e 9 15
e 9 17
e 9 20
e 9 23
e 9 24
e 9 25
e 9 26
e 9 27
e 10 11
e 10 16
e 10 26
e 10 27
e 11 12
e 11 13
e 11 14
e 11 15
e 11 16
e 11 17
e 11 18
e 11 20
e 11 21
e 11 22
e 11 23
e 11 25
e 11 30
e 12 13
e 12 17
e 12 18
e 12 19
e 12 20
e 12 21
e 12 22
e 12 23
e 12 24
e 12 26
e 12 27
e 12 28
e 13 14
e 13 16
e 13 17
e 13 18
e 13 21
e 13 25
e 13 29
e 14 15
e 14 17
e 14 19
e 14 22
e 14 23
e 14 24
e 14 25
e 14 28
e 15 17
e 15 20
e 15 23
e 15 24
e 15 25
e 15 26
e 15 30
e 16 17
e 16 18
e 16 22
e 16 23
e 16 30
e 17 18
e 17 21
e 17 23
e 17 25
e 17 26
e 17 30
e 18 20
e 18 22
e 18 24
e 18 27
e 18 28
e 18 29
e 19 21
e 19 22
e 20 21
e 20 27
e 20 28
e 20 29
e 21 22
e 21 24
e 21 25
e 21 26
e 21 30
e 22 23
e 22 24
e 22 29
e 22 30
e 23 26
e 23 27
e 23 29
e 23 30
e 24 25
e 24 27
e 24 28
e 24 29
e 25 26
e 25 27
e 25 28
e 25 29
e 25 30
e 28 29
e 28 30
